16 32
1 2 2
1 5 1
2 3 3
2 6 5
3 4 2
3 7 5
4 8 2
5 6 5
5 9 4
6 7 1
6 10 4
7 8 4
7 11 3
8 12 5
9 10 5
9 13 5
10 11 5
10 14 1
11 12 3
11 15 1
12 16 3
13 14 1
14 15 3
15 16 1
1 13 3
2 14 5
3 15 4
4 16 5
1 4 5
5 8 2
9 12 3
13 16 1
